 XYZ_I_CaMn3+O4_4W_OHOOHonCa_mu16       
   1.00000000000000     
    25.0000000000000000    0.0000000000000000    0.0000000000000000
     0.0000000000000000   25.0000000000000000    0.0000000000000000
     0.0000000000000000    0.0000000000000000   25.0000000000000000
   Ca   Mn   O    H 
     1     3     8     8
Selective dynamics
Direct
  0.5583733037575320  0.5091231611993324  0.5282544763756952   T   T   T
  0.3352544082356849  0.5037457327287461  0.4474664815283629   T   T   T
  0.4283739622837153  0.5796285380724844  0.4946807858068129   T   T   T
  0.4484580681316841  0.4524775017554121  0.4835691284319668   T   T   T
  0.4686083129057785  0.5179193498878875  0.5410935792123973   T   T   T
  0.4286134223696246  0.5198377447210859  0.4357969561483355   T   T   T
  0.6028881779886898  0.5780000243435878  0.4850590267460388   T   T   T
  0.3511835086277162  0.5670464336810338  0.5007935924472152   T   T   T
  0.5275336846370304  0.4392196876655217  0.4831255145040459   T   T   T
  0.3716371900958088  0.4403444323613828  0.4897353503358755   T   T   T
  0.5703493917655230  0.5973121767086204  0.5308608771400654   T   T   T
  0.4862573746936699  0.6370845156112920  0.4968441342255820   T   T   T
  0.4508923270912137  0.5143814298678643  0.5752135621504598   T   T   T
  0.4384502840558220  0.5244228395793883  0.3987731600464851   T   T   T
  0.6357903365715704  0.5980864807152745  0.4889122640750076   T   T   T
  0.3235001324710402  0.5896692430336828  0.5151028821651603   T   T   T
  0.5426724949892874  0.4097124978659583  0.4635865081778922   T   T   T
  0.3523105800685997  0.4094420721907323  0.5022052613834249   T   T   T
  0.4835645436351810  0.6755170620502507  0.4957673334989953   T   T   T
  0.5244962090214775  0.6246836059420993  0.5096595930685937   T   T   T
 
  0.00000000E+00  0.00000000E+00  0.00000000E+00
  0.00000000E+00  0.00000000E+00  0.00000000E+00
  0.00000000E+00  0.00000000E+00  0.00000000E+00
  0.00000000E+00  0.00000000E+00  0.00000000E+00
  0.00000000E+00  0.00000000E+00  0.00000000E+00
  0.00000000E+00  0.00000000E+00  0.00000000E+00
  0.00000000E+00  0.00000000E+00  0.00000000E+00
  0.00000000E+00  0.00000000E+00  0.00000000E+00
  0.00000000E+00  0.00000000E+00  0.00000000E+00
  0.00000000E+00  0.00000000E+00  0.00000000E+00
  0.00000000E+00  0.00000000E+00  0.00000000E+00
  0.00000000E+00  0.00000000E+00  0.00000000E+00
  0.00000000E+00  0.00000000E+00  0.00000000E+00
  0.00000000E+00  0.00000000E+00  0.00000000E+00
  0.00000000E+00  0.00000000E+00  0.00000000E+00
  0.00000000E+00  0.00000000E+00  0.00000000E+00
  0.00000000E+00  0.00000000E+00  0.00000000E+00
  0.00000000E+00  0.00000000E+00  0.00000000E+00
  0.00000000E+00  0.00000000E+00  0.00000000E+00
  0.00000000E+00  0.00000000E+00  0.00000000E+00
