Ag44(SR)30 monomer                      
   1.00000000000000     
    40.0000000000000000    0.0000000000000000    0.0000000000000000
     0.0000000000000000   40.0000000000000000    0.0000000000000000
     0.0000000000000000    0.0000000000000000   40.0000000000000000
   Ag   S    C    O    H 
    44    30   210    60   150
Selective dynamics
Direct
  0.4605596429067852  0.5121969309055697  0.4445441941102126   T   T   T
  0.4511893192397696  0.4540725616980000  0.4867928753705832   T   T   T
  0.5093394678089436  0.4596094012421367  0.4445576849648373   T   T   T
  0.5650270885762543  0.4806019698314738  0.4872082800892023   T   T   T
  0.5307615986088301  0.5277637589367690  0.4452250268911623   T   T   T
  0.4851163107182245  0.5646288038571916  0.4873176256079990   T   T   T
  0.5402623283029495  0.4876643824272331  0.5561004915716494   T   T   T
  0.5498095561286840  0.5452954363974943  0.5137409676241418   T   T   T
  0.4911647976541179  0.5403208699698009  0.5555434113739287   T   T   T
  0.4357943958628143  0.5192773979662176  0.5129466762638352   T   T   T
  0.4698771112176038  0.4719533026055523  0.5549923197952034   T   T   T
  0.5155808238514117  0.4352821525387605  0.5127070871452114   T   T   T
  0.4841448077272330  0.3940967915703847  0.4617526842144498   T   T   T
  0.5005161313404830  0.4997261743286681  0.3848951177933872   T   T   T
  0.4451321142990706  0.4483526180708172  0.4148349601818869   T   T   T
  0.3942789917279818  0.4918861811003584  0.4609860317018046   T   T   T
  0.6000714366759262  0.5395482343885786  0.4617301814938130   T   T   T
  0.5717173865612992  0.4777865200628054  0.4143924746057122   T   T   T
  0.5599332185033318  0.4127455524177134  0.4609178244403934   T   T   T
  0.4163202891756942  0.5667391875371705  0.4616108299038781   T   T   T
  0.4829715692318796  0.5733664927748929  0.4154136051319696   T   T   T
  0.5459291938006323  0.5950930278206187  0.4614584659245662   T   T   T
  0.5166397413363100  0.6056411022808523  0.5380878185732908   T   T   T
  0.4986753235849005  0.5004069524684098  0.6157035480562290   T   T   T
  0.5558732740323485  0.5530120927697875  0.5847161317137524   T   T   T
  0.6069751300019933  0.5063603860874408  0.5403907497733281   T   T   T
  0.4004864287575716  0.4603995483561260  0.5380705230430455   T   T   T
  0.4278572684042472  0.5214465245337486  0.5847693534554876   T   T   T
  0.4402342886334035  0.5873823516783158  0.5385441022154079   T   T   T
  0.5843688577636729  0.4319329349218461  0.5376007455784885   T   T   T
  0.5172006153271754  0.4264363435952602  0.5841675063147436   T   T   T
  0.4546892181875133  0.4043548225979462  0.5387818358601743   T   T   T
  0.4545449619842885  0.3899014132219029  0.6159220419059818   T   T   T
  0.5007169078618170  0.3509447950215037  0.5723257574321986   T   T   T
  0.3829733313612920  0.4848125921395947  0.3837876019172166   T   T   T
  0.3724807983285416  0.4245526441850183  0.4275813385490839   T   T   T
  0.5719382693047850  0.4054299160311299  0.3838947219213217   T   T   T
  0.6292326594861655  0.4271703405859856  0.4264496238290601   T   T   T
  0.5452037812539801  0.6095969437829273  0.3842071462187304   T   T   T
  0.4986620162685017  0.6482956000524601  0.4272632578069310   T   T   T
  0.6349988259488125  0.4912670977478197  0.6632769633906213   T   T   T
  0.6283056175665781  0.5758097242790279  0.5731571679400257   T   T   T
  0.4276813462241354  0.5942593317250905  0.6148844634471445   T   T   T
  0.3706795423232539  0.5718131713536233  0.5714007217909125   T   T   T
  0.4257777353899692  0.3884427169563073  0.4277167614288220   T   T   T
  0.4405608883778822  0.4813323500467390  0.3588978777364021   T   T   T
  0.3708519370705671  0.5361289387831115  0.4199816833572060   T   T   T
  0.3610794066724748  0.4427760569954259  0.4877780356545008   T   T   T
  0.3333840554434494  0.4450270634542963  0.3828351771539158   T   T   T
  0.6330487897041617  0.4912448363070714  0.4270782979899163   T   T   T
  0.5456501411314852  0.4566616278079859  0.3579184936025556   T   T   T
  0.5331909966979890  0.3698643527500470  0.4208962600949201   T   T   T
  0.6190296240165407  0.4074071698216609  0.4862790099209413   T   T   T
  0.6320295829839070  0.3827553905890086  0.3823672967728393   T   T   T
  0.4407227087051359  0.6203520230947872  0.4272940439025448   T   T   T
  0.5139394609426988  0.5607308618420794  0.3593396552403062   T   T   T
  0.5958698390320756  0.5935368750229743  0.4200748634108457   T   T   T
  0.5198364668810403  0.6486434313994510  0.4874935456019314   T   T   T
  0.5355493471281511  0.6727322662557361  0.3826114267303664   T   T   T
  0.5757944085267268  0.6123483039612655  0.5714631976544836   T   T   T
  0.5537599772715474  0.5241386126794986  0.6414977115758129   T   T   T
  0.6320023427384631  0.4596011089021815  0.5759100532853992   T   T   T
  0.6388311595882936  0.5551864932900645  0.5129289939403288   T   T   T
  0.6702552125633892  0.5610431393245104  0.6156118932061013   T   T   T
  0.3662021568965627  0.5078779454158497  0.5720629235587763   T   T   T
  0.4522720154750183  0.5425866285259566  0.6411130474474266   T   T   T
  0.4668251412936598  0.6300898509165982  0.5790890416671650   T   T   T
  0.3810834797407693  0.5923328234002487  0.5116132421885093   T   T   T
  0.3680001500812524  0.6163759994262149  0.6156137069778892   T   T   T
  0.5587056965671716  0.3788046997030231  0.5726728927575216   T   T   T
  0.4859471033727890  0.4382162134512509  0.6405625555167553   T   T   T
  0.4046438550625792  0.4063277337069587  0.5798161723953178   T   T   T
  0.4806054386546219  0.3509468672682213  0.5121238050126590   T   T   T
  0.4641591816755227  0.3271443955846323  0.6173571556416968   T   T   T
  0.4298079077427840  0.3624081141729483  0.3920368939451973   T   T   T
  0.4512017550072366  0.3702465859230881  0.3653643759389182   T   T   T
  0.4542924592707357  0.3486795304062816  0.3383312717017067   T   T   T
  0.4151217661624227  0.3104811790685540  0.3642093155519308   T   T   T
  0.4117962595054421  0.3321344443101785  0.3911261081884255   T   T   T
  0.4385733099089238  0.2951644564717150  0.3089610201721891   T   T   T
  0.4362724283213190  0.3185607639419815  0.3373799681525577   T   T   T
  0.4409065503803081  0.4545366636939826  0.3235103996009098   T   T   T
  0.4417857724228436  0.4127455012384172  0.2668484178418573   T   T   T
  0.4111715196284413  0.4405048182925007  0.3111963548083469   T   T   T
  0.4116107550150561  0.4198378720431180  0.2833306262305651   T   T   T
  0.4714399174883327  0.4272990991144306  0.2787237129247054   T   T   T
  0.4710615636070141  0.4479433730816517  0.3066108828188739   T   T   T
  0.4433983732715028  0.3901191408482445  0.2378034596300237   T   T   T
  0.3279956191171806  0.5369623734559742  0.4318838967241490   T   T   T
  0.3029886785561880  0.5285322177211731  0.4086615246002477   T   T   T
  0.2695770340374989  0.5280247306858070  0.4182161090825425   T   T   T
  0.2602935517482230  0.5364477153066843  0.4510174846562732   T   T   T
  0.2852075709021993  0.5460307043473013  0.4737774722856994   T   T   T
  0.3185947724123406  0.5461495269328258  0.4644514060545088   T   T   T
  0.2256450163885494  0.5336258210862668  0.4633949861603339   T   T   T
  0.3175435728932531  0.4469767788558928  0.4954352424247290   T   T   T
  0.3061514608052505  0.4485551332104092  0.5286622970982383   T   T   T
  0.2722111145710217  0.4508579543823801  0.5356244862310224   T   T   T
  0.2486758285201645  0.4515551555652134  0.5095755262437616   T   T   T
  0.2600511426427552  0.4494304913499058  0.4764275611846037   T   T   T
  0.2939546006889459  0.4472300251493296  0.4693713597480373   T   T   T
  0.2125416833911778  0.4550818600390915  0.5157320571322074   T   T   T
  0.3330444397800878  0.4158550788717192  0.3498138635686047   T   T   T
  0.3303275433465930  0.3695559641845247  0.2965166332629580   T   T   T
  0.3468229553332634  0.3836838200459278  0.3530980334613754   T   T   T
  0.3456114072311621  0.3609293005285806  0.3269556022227247   T   T   T
  0.3160208016247228  0.4014792897205959  0.2932184001117805   T   T   T
  0.3173108463934151  0.4242519279200289  0.3193491854743227   T   T   T
  0.3294192061724685  0.3466303303341892  0.2677353332713931   T   T   T
  0.6534843933531480  0.5080643763688423  0.3915874527875847   T   T   T
  0.6358839823360793  0.5231338676773950  0.3652480726259765   T   T   T
  0.6529109690771121  0.5369466335264336  0.3383341125813570   T   T   T
  0.7056827243387594  0.5215492073314911  0.3637345754674362   T   T   T
  0.6886909938446186  0.5075703519948201  0.3905720284941614   T   T   T
  0.7069842417338968  0.5499391802400684  0.3087335430262159   T   T   T
  0.6879944333685748  0.5362250236473582  0.3371893299035625   T   T   T
  0.5687433155873040  0.4709947637091131  0.3228875202414908   T   T   T
  0.6048882728222273  0.4935513998702901  0.2668486475237848   T   T   T
  0.5957841315691212  0.4524001114185350  0.3104146121414390   T   T   T
  0.6136445311783260  0.4635393877289573  0.2828338331135414   T   T   T
  0.5774369928025778  0.5118422433821765  0.2788837720125651   T   T   T
  0.5595235697665092  0.5007491641886835  0.3064804690693892   T   T   T
  0.6237913654978370  0.5067092575455155  0.2380753225684872   T   T   T
  0.5541807351170975  0.3324059067674349  0.4325632223072888   T   T   T
  0.5737052019928206  0.3150308391086329  0.4090409195455351   T   T   T
  0.5913016367690692  0.2865493427425322  0.4183870155436532   T   T   T
  0.5893605759817924  0.2744036614118355  0.4512729381267876   T   T   T
  0.5688032920657252  0.2910268780414428  0.4743154581329012   T   T   T
  0.5515718752820045  0.3196955889066609  0.4652149960595212   T   T   T
  0.6095927112216767  0.2460293735334841  0.4634516389379591   T   T   T
  0.6371927353167122  0.3678029199233901  0.4942458739012914   T   T   T
  0.6408067462528876  0.3573778905699030  0.5276353174323286   T   T   T
  0.6557035205895115  0.3269488778930250  0.5350674872008895   T   T   T
  0.6674751418226438  0.3060675789875091  0.5093957094594985   T   T   T
  0.6645695363199537  0.3168933434478347  0.4761204137029083   T   T   T
  0.6496417435270915  0.3472966854411878  0.4685553098562473   T   T   T
  0.6818456711151006  0.2728612299881842  0.5161502484446338   T   T   T
  0.6569290877305467  0.3976078956495276  0.3491498362969889   T   T   T
  0.6986833981986711  0.4185622839046652  0.2960979269426973   T   T   T
  0.6777117456573850  0.4257749059781277  0.3525053815744497   T   T   T
  0.6981347697347826  0.4361704971802036  0.3264947779049898   T   T   T
  0.6781720317464383  0.3902490069256606  0.2925844481606654   T   T   T
  0.6576085206122927  0.3799552128398990  0.3185819224440785   T   T   T
  0.7194812148460878  0.4292845250852386  0.2676929538267601   T   T   T
  0.4159576505699205  0.6297992469556207  0.3917632495219819   T   T   T
  0.4116763823784176  0.6073456691509816  0.3651215420458408   T   T   T
  0.3912250436281972  0.6155195791112971  0.3382499672869108   T   T   T
  0.3781615889825623  0.6685769892422285  0.3642834572721967   T   T   T
  0.3988094819390341  0.6605760653220902  0.3909921152726686   T   T   T
  0.3523579937513938  0.6560712293978276  0.3094847679657497   T   T   T
  0.3742239967569707  0.6462297521413546  0.3374908930672590   T   T   T
  0.4902640748637995  0.5736298873610334  0.3240801786642735   T   T   T
  0.4536460289867437  0.5935412232872546  0.2673223829068075   T   T   T
  0.4930412175908965  0.6063122056508249  0.3115739881138400   T   T   T
  0.4749685257674420  0.6161742863658167  0.2836317064031339   T   T   T
  0.4512276251383567  0.5607068092135470  0.2794819465939110   T   T   T
  0.4692574015500917  0.5508239041472549  0.3074471522190105   T   T   T
  0.4333087753762981  0.6031470027101186  0.2381157300673712   T   T   T
  0.6178318276654026  0.6302628581469810  0.4320601728088027   T   T   T
  0.6229456092113630  0.6560796262405707  0.4087560380270502   T   T   T
  0.6388436448232678  0.6854678182981233  0.4182684789247005   T   T   T
  0.6505085597830984  0.6895380544506851  0.4511312841234565   T   T   T
  0.6465482394623731  0.6631862167215802  0.4739533250810291   T   T   T
  0.6303664689344489  0.6339628641837827  0.4646596761334423   T   T   T
  0.6648459356437508  0.7212120623772137  0.4634897343481629   T   T   T
  0.5451057605652063  0.6841677380241616  0.4954410449400238   T   T   T
  0.5516492604318083  0.6932833598732034  0.5287634767522958   T   T   T
  0.5703568656279528  0.7216282973854827  0.5359396466164401   T   T   T
  0.5830566082799381  0.7416073489597436  0.5100010664696765   T   T   T
  0.5759697664401510  0.7327965933162356  0.4767619182614380   T   T   T
  0.5573085139060729  0.7044797162821131  0.4695103425919698   T   T   T
  0.6041929730854829  0.7710475310712740  0.5163346624651773   T   T   T
  0.5099199436133348  0.6870296270193856  0.3496638854629633   T   T   T
  0.4705461234650794  0.7119879786642884  0.2964838491733540   T   T   T
  0.4751631314947837  0.6910460181412410  0.3531889383468725   T   T   T
  0.4557933181591065  0.7031513169024612  0.3271062218069088   T   T   T
  0.5053536772651690  0.7086155838504437  0.2929355683906280   T   T   T
  0.5246987672470984  0.6963262253192214  0.3189898345580576   T   T   T
  0.4506820959460492  0.7238718863388421  0.2678393685935083   T   T   T
  0.5710484356544845  0.6382055102605042  0.6072370746458441   T   T   T
  0.5490525065261725  0.6304294305149203  0.6334678340889305   T   T   T
  0.5456919376735673  0.6517613886242628  0.6606844859915153   T   T   T
  0.5855716999907998  0.6898299329186163  0.6357652050416058   T   T   T
  0.5890934988611063  0.6684386973307915  0.6086567895877150   T   T   T
  0.5620847940417276  0.7046881533189073  0.6910487422590254   T   T   T
  0.5640461193208595  0.6816623782486778  0.6622902180704159   T   T   T
  0.5528214358109598  0.5502504307951417  0.6773179693232041   T   T   T
  0.5551786826696613  0.5895044978114037  0.7361390199409245   T   T   T
  0.5828522157314785  0.5653262375029436  0.6879533686660071   T   T   T
  0.5842207085597645  0.5839324553045974  0.7172131787639299   T   T   T
  0.5249573465758030  0.5751697910842366  0.7253294370640976   T   T   T
  0.5238300696937911  0.5554680976864015  0.6966989073434314   T   T   T
  0.5556142051343523  0.6114529802285760  0.7657814321996359   T   T   T
  0.6745185046995332  0.4581298889789227  0.5634317566205949   T   T   T
  0.6991569223282844  0.4651307375744199  0.5875865277765648   T   T   T
  0.7326623878496330  0.4677411262535293  0.5790936603089355   T   T   T
  0.7429389704159245  0.4624050527517001  0.5459775725584499   T   T   T
  0.7188127133252893  0.4530458318327290  0.5222530081485305   T   T   T
  0.6851723576556559  0.4511174162315285  0.5306392702331361   T   T   T
  0.7775021464106959  0.4685947459369895  0.5346950941607860   T   T   T
  0.6823504201610686  0.5513207118082700  0.5045778975478689   T   T   T
  0.6932828368830918  0.5498200949074633  0.4711852016440591   T   T   T
  0.7271616196540613  0.5483031598179373  0.4636874777182876   T   T   T
  0.7511143632659630  0.5481745754613594  0.4893766914159673   T   T   T
  0.7401803383929084  0.5501360055198998  0.5226712541046792   T   T   T
  0.7063612102033019  0.5516301434696945  0.5302491868858297   T   T   T
  0.7872167782807781  0.5451706048889140  0.4828445999865875   T   T   T
  0.6700814571997283  0.5894753411904582  0.6486665010262322   T   T   T
  0.6689598823322717  0.6320980277705336  0.7054093957704357   T   T   T
  0.6546149414247490  0.6211599702226890  0.6473496896543561   T   T   T
  0.6539582439134728  0.6418827397929134  0.6751141971712380   T   T   T
  0.6850684059567150  0.6008820723419187  0.7067884986786139   T   T   T
  0.6859364045765225  0.5802665107214354  0.6789658547412122   T   T   T
  0.6688741216268613  0.6535547042701464  0.7351786290427568   T   T   T
  0.3458536957238633  0.4914301083993985  0.6078955278490970   T   T   T
  0.3634781723120836  0.4763751904768077  0.6342553079926166   T   T   T
  0.3465260489070258  0.4630732848039286  0.6614943175670466   T   T   T
  0.2937443038461254  0.4788782557930150  0.6364541825610117   T   T   T
  0.3106502207010499  0.4922540070321511  0.6092481368642988   T   T   T
  0.2925983281584032  0.4513824138559847  0.6919489628479873   T   T   T
  0.3114717538925825  0.4643274509673701  0.6630430371169349   T   T   T
  0.4293549895222530  0.5285221998949112  0.6763059958625854   T   T   T
  0.3944296659193628  0.5064065909632629  0.7332269675631320   T   T   T
  0.4027261744661746  0.5473531090758618  0.6893133365086889   T   T   T
  0.3854564633799044  0.5364162397917863  0.7173517548252757   T   T   T
  0.4214677537909555  0.4878932706379220  0.7206257955553761   T   T   T
  0.4387323068094908  0.4987312187657848  0.6925629583650847   T   T   T
  0.3760050858252532  0.4932271910515690  0.7622540659211382   T   T   T
  0.4457273367887992  0.6675173564033766  0.5674192995523530   T   T   T
  0.4257185133755824  0.6844128869860249  0.5908497753305361   T   T   T
  0.4078399549196091  0.7127388277215194  0.5815812415810955   T   T   T
  0.4100671828159876  0.7252731983505349  0.5488609016392491   T   T   T
  0.4312101177189528  0.7092163770454176  0.5259432566142385   T   T   T
  0.4486556038226319  0.6806133223490356  0.5349451255443852   T   T   T
  0.3892227125717166  0.7531774325975187  0.5366112206423345   T   T   T
  0.3626961923309004  0.6320120609230790  0.5039983164056240   T   T   T
  0.3588992155603589  0.6429775955925827  0.4707960308834698   T   T   T
  0.3439080578421700  0.6735220235682221  0.4638630787096373   T   T   T
  0.3322384833723059  0.6939926751541259  0.4899215712011285   T   T   T
  0.3354590498349000  0.6826985479631406  0.5230135940491661   T   T   T
  0.3503988173607221  0.6521723826436431  0.5300330349062942   T   T   T
  0.3178133905502077  0.7273282099542808  0.4839419217794240   T   T   T
  0.3431622386970160  0.6019304544536103  0.6490355361543548   T   T   T
  0.3022090330082943  0.5815236760157781  0.7028837672462988   T   T   T
  0.3216456483550341  0.5742763677812736  0.6459547628056699   T   T   T
  0.3015865311378012  0.5641494333144733  0.6723666687536121   T   T   T
  0.3232769969843097  0.6094643918408897  0.7060455717137618   T   T   T
  0.3433991528929193  0.6195133185021695  0.6796394570976309   T   T   T
  0.2821043735521060  0.5710373536599488  0.7318699078094084   T   T   T
  0.5836547535594516  0.3695429278883402  0.6079989561043070   T   T   T
  0.5876578501032234  0.3920138633094206  0.6347203583806446   T   T   T
  0.6081802539653296  0.3840799700621675  0.6615689551752467   T   T   T
  0.6218687614306245  0.3311889351462353  0.6356267707459460   T   T   T
  0.6011492572186685  0.3389492613352791  0.6089058533196032   T   T   T
  0.6475552180281220  0.3441079214742452  0.6904325492825700   T   T   T
  0.6256819020528128  0.3536311267133233  0.6623782724631896   T   T   T
  0.5097609792269000  0.4255929402290153  0.6756964650030219   T   T   T
  0.5466512376557252  0.4062890662124084  0.7326478332412837   T   T   T
  0.5070714078537023  0.3930701061720614  0.6886710593218041   T   T   T
  0.5252468402778445  0.3835099365506846  0.7166449461878973   T   T   T
  0.5489340881337920  0.4390169526209073  0.7200717151382039   T   T   T
  0.5309003979354791  0.4485929157195994  0.6920024663980899   T   T   T
  0.5669701346390836  0.3970536163829827  0.7619542462124516   T   T   T
  0.3824311271511439  0.3696209131914383  0.5681328975189653   T   T   T
  0.3773787458033258  0.3438942801345501  0.5915462352101551   T   T   T
  0.3615891612104241  0.3144141817508549  0.5821314278461539   T   T   T
  0.3498843593321785  0.3102143071286387  0.5492969087750532   T   T   T
  0.3535720659137261  0.3365536420935848  0.5264502504944980   T   T   T
  0.3697602710531996  0.3658106752159333  0.5356072814731131   T   T   T
  0.3359818673968051  0.2783554724831860  0.5369593716669439   T   T   T
  0.4552399642081118  0.3154002886486379  0.5043024164643825   T   T   T
  0.4481519502730759  0.3064782226425792  0.4710365067258883   T   T   T
  0.4292410440319532  0.2782229513499284  0.4639931486366615   T   T   T
  0.4167959085915881  0.2581542392600082  0.4899909892652398   T   T   T
  0.4243391609904388  0.2668114652162408  0.5231619767256906   T   T   T
  0.4432729480880179  0.2949816396865536  0.5302832445252946   T   T   T
  0.3954654028324953  0.2288012501900345  0.4838371309414049   T   T   T
  0.4896105522616938  0.3127703872246662  0.6502795927898121   T   T   T
  0.5287165413855667  0.2874762727439218  0.7033719768682712   T   T   T
  0.5243068131105131  0.3084067485336019  0.6466740532406503   T   T   T
  0.5435760852697790  0.2961203135499948  0.6727353324873282   T   T   T
  0.4939597654218741  0.2912520224489470  0.7070059855239420   T   T   T
  0.4747220154603355  0.3036888775778271  0.6809601587637016   T   T   T
  0.5484047477371822  0.2752003786685354  0.7319283965669154   T   T   T
  0.4586694023753372  0.3067352196805040  0.2837128440591510   T   T   T
  0.4244651247130946  0.2680161383055896  0.3068486159637933   T   T   T
  0.4127792732816519  0.3772977969422071  0.2290694568596929   T   T   T
  0.4686970097427581  0.3825641687659926  0.2222161548282037   T   T   T
  0.2040777798969660  0.5201693469292979  0.4404206890565716   T   T   T
  0.2161958160827563  0.5413464787507608  0.4915115489096783   T   T   T
  0.2046107598494037  0.4569092582448713  0.5490637379884155   T   T   T
  0.1906710211433397  0.4564715458182778  0.4942276549717003   T   T   T
  0.3452389370832283  0.3168124436178109  0.2738526314339063   T   T   T
  0.3163381409937071  0.3523355786379163  0.2405527527430532   T   T   T
  0.6868394003168522  0.5625912121113644  0.2840477110635918   T   T   T
  0.7375379670697120  0.5503714925730077  0.3060916867463191   T   T   T
  0.6501309017115513  0.4866268342699036  0.2290131620884147   T   T   T
  0.6178076931141770  0.5326916747478350  0.2229358441985857   T   T   T
  0.6316635858437197  0.2340640755908357  0.4401333331112279   T   T   T
  0.6083421154671336  0.2341250926222823  0.4916768480959740   T   T   T
  0.6821462285110227  0.2647867879395732  0.5494997811002769   T   T   T
  0.6926219693855589  0.2532097003388925  0.4951441362917439   T   T   T
  0.7368602483779638  0.4581620322597441  0.2739792635364683   T   T   T
  0.7219073757957556  0.4149318210852401  0.2406617811484335   T   T   T
  0.3521499227382970  0.6332543344468259  0.2838842540781624   T   T   T
  0.3356209682916674  0.6817297516967485  0.3079783854134509   T   T   T
  0.4370751289555007  0.6361097658334415  0.2293356315070399   T   T   T
  0.4145090096838579  0.5846488972921032  0.2224743640684289   T   T   T
  0.6633175026725417  0.7466554663874557  0.4405615140695456   T   T   T
  0.6763167695317209  0.7257543281321593  0.4915548438694969   T   T   T
  0.6098452896416604  0.7767754758220773  0.5496712831834967   T   T   T
  0.6163304368440310  0.7893951776763364  0.4949115154127557   T   T   T
  0.4169173671408878  0.7239380780626277  0.2740109751664823   T   T   T
  0.4618470527993365  0.7328624467307125  0.2407075154015501   T   T   T
  0.5413272304039807  0.6934328174720343  0.7159298915829977   T   T   T
  0.5771033820859903  0.7313035717119217  0.6937553705618241   T   T   T
  0.5869575897073516  0.6236730099610532  0.7726556040512803   T   T   T
  0.5314437602986605  0.6191461488627329  0.7829851829637912   T   T   T
  0.7972007087125718  0.4828036510574673  0.5589490848372981   T   T   T
  0.7883272514414761  0.4630925663754371  0.5065714375398346   T   T   T
  0.7948356594852288  0.5429190375548694  0.4494980216825444   T   T   T
  0.8093540524489645  0.5444127890489495  0.5041255300590920   T   T   T
  0.6541658659616113  0.6840962705836846  0.7296667090254334   T   T   T
  0.6807155347989214  0.6464093412993203  0.7626445148203663   T   T   T
  0.3128276938893736  0.4382144779556920  0.7163105345506571   T   T   T
  0.2621008950932180  0.4519032550943932  0.6951747057392965   T   T   T
  0.3496473992747136  0.5131204769928650  0.7716022860732180   T   T   T
  0.3822859836360512  0.4672368116383401  0.7772853504903909   T   T   T
  0.3659150912508974  0.7637329293339166  0.5594010386846359   T   T   T
  0.3908976050913753  0.7656229307519885  0.5086485092874992   T   T   T
  0.3164456259382284  0.7357469462049921  0.4507380253988450   T   T   T
  0.3078163111284714  0.7468080908475491  0.5055154026302854   T   T   T
  0.2634316454149599  0.5429209698885602  0.7257801774297730   T   T   T
  0.2813387254311596  0.5849603539407677  0.7592174595781601   T   T   T
  0.6484122775370752  0.3676113558896707  0.7155416185222601   T   T   T
  0.6638916008325877  0.3182597713861202  0.6925197115727443   T   T   T
  0.5631018849401667  0.3642701233046875  0.7712360534763905   T   T   T
  0.5858984144777065  0.4157425557611298  0.7772701659449524   T   T   T
  0.3382798075625837  0.2528780809778541  0.5597610103468594   T   T   T
  0.3243586856335864  0.2736901675778839  0.5089828779520971   T   T   T
  0.3897099528786269  0.2229323072470797  0.4505501062398817   T   T   T
  0.3832730496832062  0.2106379763530913  0.5054027581861941   T   T   T
  0.5820429282075532  0.2733794068660485  0.7253180806313900   T   T   T
  0.5372682354773137  0.2672197774104457  0.7593985007748876   T   T   T
  0.4653886612720791  0.3934941072204843  0.3658716268165186   T   T   T
  0.4707676975682818  0.3552305819138114  0.3176924245601850   T   T   T
  0.4012722783950760  0.2870141628721794  0.3633899781249042   T   T   T
  0.3952513299544557  0.3258292251095523  0.4118464223747383   T   T   T
  0.3876265806629278  0.4456878089272305  0.3239067007173617   T   T   T
  0.3883644560787817  0.4089265200345703  0.2743449575673564   T   T   T
  0.4948333250738013  0.4219340053952804  0.2658075574190041   T   T   T
  0.4943219185430388  0.4586239349559342  0.3158998771759304   T   T   T
  0.3100329506087410  0.5214247662670245  0.3833274986112534   T   T   T
  0.2505077001290499  0.5204889421424387  0.4002962083897919   T   T   T
  0.2779012071898580  0.5525368714585317  0.4992035520128391   T   T   T
  0.3377083846254425  0.5531326569482586  0.4825643044691027   T   T   T
  0.3241808361106032  0.4480567968724192  0.5490730902630269   T   T   T
  0.2638394585662485  0.4522032645373100  0.5614836002805141   T   T   T
  0.2417799844684519  0.4497824292266834  0.4562121367836283   T   T   T
  0.3022872514764289  0.4456361769531893  0.4434668765647911   T   T   T
  0.3590632781990834  0.3768707122057993  0.3764826753406800   T   T   T
  0.3570410270879805  0.3364130886048378  0.3299181401890937   T   T   T
  0.3042070719427803  0.4080597972710933  0.2695598640699064   T   T   T
  0.3063383700550156  0.4490354332728431  0.3164502539964918   T   T   T
  0.6086594895327841  0.5238357234945887  0.3659216256475138   T   T   T
  0.6389318518729735  0.5482289180751936  0.3179011774046532   T   T   T
  0.7329200704699976  0.5211560928216439  0.3627620286380127   T   T   T
  0.7024621919614219  0.4961365147797130  0.4111207107326657   T   T   T
  0.6029537108303514  0.4292293435309272  0.3228333783810897   T   T   T
  0.6347789353748118  0.4490106263807377  0.2737710184516556   T   T   T
  0.5705242018599996  0.5350219306640444  0.2663265761083859   T   T   T
  0.5385984298599635  0.5154210482210717  0.3158816856678807   T   T   T
  0.5758418556282613  0.3246352533796450  0.3836335412977974   T   T   T
  0.6071976797378178  0.2739188966376743  0.4002398991860266   T   T   T
  0.5673291514826103  0.2814877775665844  0.4997845183249157   T   T   T
  0.5361602846978366  0.3326651754783935  0.4835419470274414   T   T   T
  0.6317435171986373  0.3733946853020660  0.5477233612827027   T   T   T
  0.6582392316602611  0.3191719623813088  0.5610200233298629   T   T   T
  0.6738361220512818  0.3007764835674070  0.4562016906233704   T   T   T
  0.6473967041486499  0.3552177570858017  0.4425703107821601   T   T   T
  0.6773967537690128  0.4397304769530384  0.3759177948325380   T   T   T
  0.7136437072855367  0.4583111715947568  0.3295787687761829   T   T   T
  0.6784964969558246  0.3767498653395998  0.2689098871947774   T   T   T
  0.6416445242360265  0.3580661120129587  0.3155647225119604   T   T   T
  0.4245652331495211  0.5833507362046356  0.3655509367637206   T   T   T
  0.3883612595235506  0.5979523838128379  0.3176693318367574   T   T   T
  0.3648158743822048  0.6923351350885074  0.3635835071592448   T   T   T
  0.4018592767655987  0.6780718286952632  0.4116615741617291   T   T   T
  0.5093441777767144  0.6241462771851362  0.3241906175566767   T   T   T
  0.4771823187254279  0.6417155845386598  0.2745319119189079   T   T   T
  0.4347712624355419  0.5431222011012234  0.2667257822158760   T   T   T
  0.4667002590351391  0.5254398129865524  0.3169474515138532   T   T   T
  0.6134135162000115  0.6533420340141626  0.3833850023996715   T   T   T
  0.6417312768562183  0.7057259575147219  0.4003063209340530   T   T   T
  0.6556408164517963  0.6664719949943405  0.4994248167060003   T   T   T
  0.6269917222736534  0.6139133790289253  0.4828136082373764   T   T   T
  0.5418866843180670  0.6779657875937946  0.5490661628757573   T   T   T
  0.5752826723483849  0.7283224814310822  0.5618551022725766   T   T   T
  0.5856681054461924  0.7484318932216290  0.4566736178118797   T   T   T
  0.5520678240434308  0.6979978949262624  0.4435601741065378   T   T   T
  0.4633332542137579  0.6840666657665569  0.3767312407423278   T   T   T
  0.4288768564241001  0.7055233015256906  0.3303050749660487   T   T   T
  0.5167882083980702  0.7154900297078770  0.2691662665670745   T   T   T
  0.5516248814309144  0.6935177345166362  0.3158640453254384   T   T   T
  0.5347063129999646  0.6072919820596363  0.6325329635554983   T   T   T
  0.5288716951376624  0.6450626860245023  0.6810059843269195   T   T   T